Problem:    
Rows:       256
Columns:    89 (72 integer, 72 binary)
Non-zeros:  800
Status:     INTEGER OPTIMAL
Objective:  value = 60.202351 (MINimum)

   No.   Row name        Activity     Lower bound   Upper bound
------ ------------    ------------- ------------- -------------
     1 r.5                    1060.2             0               
     2 r.6                  -984.093      -992.614               
     3 r.7                   60.2024             0               
     4 r.8                   15.9066      -982.382               
     5 r.9                    1060.2             0               
     6 r.10                  -991.48      -992.194               
     7 r.11                  60.2024             0               
     8 r.12                  40.5869      -981.308               
     9 r.13                   1060.2             0               
    10 r.14                 -963.763      -986.469               
    11 r.15                  60.2024             0               
    12 r.16                  40.5869      -967.057               
    13 r.17                   1060.2             0               
    14 r.18                 -977.293        -993.2               
    15 r.19                  60.2024             0               
    16 r.20                 -982.961      -983.342               
    17 r.21                  60.2024             0               
    18 r.22                  15.9066      -993.433               
    19 r.23                   1060.2             0               
    20 r.24                 -984.093      -984.475               
    21 r.25                   1060.2             0               
    22 r.26                 -999.619      -999.619               
    23 r.27                  60.2024             0               
    24 r.28                   0.3813       -999.21               
    25 r.29                  60.2024             0               
    26 r.30                 -964.409      -980.316               
    27 r.31                   1060.2             0               
    28 r.32                 -939.798      -955.704               
    29 r.33                   1060.2             0               
    30 r.34                 -939.798      -980.385               
    31 r.35                  60.2024             0               
    32 r.36                  60.2024      -955.591               
    33 r.37                        1             1             = 
    34 r.38                        1             1             = 
    35 r.39                        1             1             = 
    36 r.40                        1             1             = 
    37 r.41                        1             1             = 
    38 r.42                        1             1             = 
    39 r.43                        1             1             = 
    40 r.44                        1             1             = 
    41 r.45                        2             2               
    42 r.46                       -2         -1001               
    43 r.47                  -7.3863      -992.194               
    44 r.48                     1000             2               
    45 r.49                    -1000         -1001               
    46 r.50                  2024.68      -981.308               
    47 r.51                        2             2               
    48 r.52                       -2         -1001               
    49 r.53                 -979.669      -986.469               
    50 r.54                     1000             2               
    51 r.55                    -1000         -1001               
    52 r.56                  2024.68      -967.057               
    53 r.57                        2             2               
    54 r.58                       -2         -1001               
    55 r.59                   -993.2        -993.2               
    56 r.60                     1000             2               
    57 r.61                    -1000         -1001               
    58 r.62                  1001.13      -983.342               
    59 r.63                     1001             2               
    60 r.64                    -1001         -1001               
    61 r.65                     2000      -993.433               
    62 r.66                     1001             2               
    63 r.67                    -1001         -1001               
    64 r.68                     2000      -984.475               
    65 r.69                 -984.475      -992.614               
    66 r.70                  15.5253      -982.382               
    67 r.71                 -984.475      -992.614               
    68 r.72                  15.5253      -982.382               
    69 r.73                 -980.316      -980.316               
    70 r.74                 -955.704      -955.704               
    71 r.75                 -980.316      -980.316               
    72 r.76                 -955.704      -955.704               
    73 r.77                        2             2               
    74 r.78                       -2         -1001               
    75 r.79                 -955.704      -980.385               
    76 r.80                     1000             2               
    77 r.81                    -1000         -1001               
    78 r.82                   2044.3      -955.591               
    79 r.83                        2             2               
    80 r.84                       -2         -1001               
    81 r.85                   7.3863        7.3863               
    82 r.86                     1000             2               
    83 r.87                    -1000         -1001               
    84 r.88                  1975.32       17.6185               
    85 r.89                        2             2               
    86 r.90                       -2         -1001               
    87 r.91                 -972.283      -986.469               
    88 r.92                     1000             2               
    89 r.93                    -1000         -1001               
    90 r.94                     2000      -967.057               
    91 r.95                        2             2               
    92 r.96                       -2         -1001               
    93 r.97                 -985.814        -993.2               
    94 r.98                     1000             2               
    95 r.99                    -1000         -1001               
    96 r.100                 976.452      -983.342               
    97 r.101                    1001             2               
    98 r.102                   -1001         -1001               
    99 r.103                 2007.39      -993.433               
   100 r.104                    1001             2               
   101 r.105                   -1001         -1001               
   102 r.106                 1975.32      -984.475               
   103 r.107                -991.861      -992.194               
   104 r.108                 40.2056      -981.308               
   105 r.109                -991.861      -992.194               
   106 r.110                 40.2056      -981.308               
   107 r.111                    1001             2               
   108 r.112                   -1001         -1001               
   109 r.113                 1027.07      -980.316               
   110 r.114                    1001             2               
   111 r.115                   -1001         -1001               
   112 r.116                 2019.62      -955.704               
   113 r.117                -948.318      -980.385               
   114 r.118                  51.682      -955.591               
   115 r.119                -980.385      -980.385               
   116 r.120                 19.6155      -955.591               
   117 r.121                       2             2               
   118 r.122                      -2         -1001               
   119 r.123                 979.669        7.3863               
   120 r.124                    1000             2               
   121 r.125                   -1000         -1001               
   122 r.126                 1975.32       17.6185               
   123 r.127                       2             2               
   124 r.128                      -2         -1001               
   125 r.129                 972.283       7.80621               
   126 r.130                    1000             2               
   127 r.131                   -1000         -1001               
   128 r.132                    2000       18.6924               
   129 r.133                -986.469      -986.469               
   130 r.134                 17.8801      -967.057               
   131 r.135                 19.1983      -986.469               
   132 r.136                 1023.55      -967.057               
   133 r.137                    1001             2               
   134 r.138                   -1001         -1001               
   135 r.139                 1979.67      -993.433               
   136 r.140                    1001             2               
   137 r.141                   -1001         -1001               
   138 r.142                 1975.32      -984.475               
   139 r.143                -964.144      -986.469               
   140 r.144                 40.2056      -967.057               
   141 r.145                -964.144      -986.469               
   142 r.146                 40.2056      -967.057               
   143 r.147                    1001             2               
   144 r.148                   -1001         -1001               
   145 r.149                 999.353      -980.316               
   146 r.150                    1001             2               
   147 r.151                   -1001         -1001               
   148 r.152                 2019.62      -955.704               
   149 r.153                -976.035      -980.385               
   150 r.154                  23.965      -955.591               
   151 r.155                -980.385      -980.385               
   152 r.156                 19.6155      -955.591               
   153 r.157                       2             2               
   154 r.158                      -2         -1001               
   155 r.159                   993.2        7.3863               
   156 r.160                    1000             2               
   157 r.161                   -1000         -1001               
   158 r.162                 2998.87       17.6185               
   159 r.163                       2             2               
   160 r.164                      -2         -1001               
   161 r.165                 985.814       7.80621               
   162 r.166                    1000             2               
   163 r.167                   -1000         -1001               
   164 r.168                 3023.55       18.6924               
   165 r.169                    1001             2               
   166 r.170                   -1001         -1001               
   167 r.171                  1993.2      -993.433               
   168 r.172                    1001             2               
   169 r.173                   -1001         -1001               
   170 r.174                 2998.87      -984.475               
   171 r.175                -977.675        -993.2               
   172 r.176                -983.342      -983.342               
   173 r.177                -977.675        -993.2               
   174 r.178                -983.342      -983.342               
   175 r.179                    1001             2               
   176 r.180                   -1001         -1001               
   177 r.181                 1012.88      -980.316               
   178 r.182                    1001             2               
   179 r.183                   -1001         -1001               
   180 r.184                 3043.16      -955.704               
   181 r.185                -962.504      -980.385               
   182 r.186                 37.4956      -955.591               
   183 r.187                 43.1633      -980.385               
   184 r.188                 1043.16      -955.591               
   185 r.189                    1001             2               
   186 r.190                   -1001         -1001               
   187 r.191                    2000        7.3863               
   188 r.192                    1001             2               
   189 r.193                   -1001         -1001               
   190 r.194                    2000       17.6185               
   191 r.195                    1001             2               
   192 r.196                   -1001         -1001               
   193 r.197                 1992.61       7.80621               
   194 r.198                    1001             2               
   195 r.199                   -1001         -1001               
   196 r.200                 2024.68       18.6924               
   197 r.201                    1001             2               
   198 r.202                   -1001         -1001               
   199 r.203                 2020.33       13.5306               
   200 r.204                    1001             2               
   201 r.205                   -1001         -1001               
   202 r.206                 2024.68        32.943               
   203 r.207                    1001             2               
   204 r.208                   -1001         -1001               
   205 r.209                  2006.8       6.80013               
   206 r.210                    1001             2               
   207 r.211                   -1001         -1001               
   208 r.212                 1001.13       16.6577               
   209 r.213                 15.5253      -993.433               
   210 r.214                -984.475      -984.475               
   211 r.215                 15.5253      -993.433               
   212 r.216                -984.475      -984.475               
   213 r.217                -980.316      -980.316               
   214 r.218                -955.704      -955.704               
   215 r.219                -980.316      -980.316               
   216 r.220                -955.704      -955.704               
   217 r.221                -955.704      -980.385               
   218 r.222                 44.2957      -955.591               
   219 r.223                -955.704      -980.385               
   220 r.224                 44.2957      -955.591               
   221 r.225                    1001             2               
   222 r.226                   -1001         -1001               
   223 r.227                 2972.93       7.80621               
   224 r.228                    1001             2               
   225 r.229                   -1001         -1001               
   226 r.230                 1980.38       18.6924               
   227 r.231                    1001             2               
   228 r.232                   -1001         -1001               
   229 r.233                 3000.65       13.5306               
   230 r.234                    1001             2               
   231 r.235                   -1001         -1001               
   232 r.236                 1980.38        32.943               
   233 r.237                    1001             2               
   234 r.238                   -1001         -1001               
   235 r.239                 2987.12       6.80013               
   236 r.240                    1001             2               
   237 r.241                   -1001         -1001               
   238 r.242                 956.837       16.6577               
   239 r.243                    1001             2               
   240 r.244                   -1001         -1001               
   241 r.245                 3024.61      -980.385               
   242 r.246                    1001             2               
   243 r.247                   -1001         -1001               
   244 r.248                    2000      -955.591               
   245 r.249                       2             2               
   246 r.250                      -2         -1001               
   247 r.251                 955.704        7.3863               
   248 r.252                    1000             2               
   249 r.253                   -1000         -1001               
   250 r.254                  1955.7       17.6185               
   251 r.255                    1001             2               
   252 r.256                   -1001         -1001               
   253 r.257                 975.388       19.6842               
   254 r.258                    1001             2               
   255 r.259                   -1001         -1001               
   256 r.260                    2000       44.2957               

   No. Column name       Activity     Lower bound   Upper bound
------ ------------    ------------- ------------- -------------
     1 tt                    60.2024             0               
     2 s_1_1        *              1             0             1 
     3 t_1_1                 44.2957             0               
     4 s_1_7        *              0             0             1 
     5 s_2_1        *              0             0             1 
     6 t_2_1                 44.2957             0               
     7 s_2_7        *              1             0             1 
     8 s_1_2        *              1             0             1 
     9 t_1_2                  51.682             0               
    10 s_1_8        *              1             0             1 
    11 s_2_2        *              0             0             1 
    12 t_2_2                 19.6155             0               
    13 s_2_8        *              0             0             1 
    14 s_1_3        *              1             0             1 
    15 t_1_3                  23.965             0               
    16 s_2_3        *              0             0             1 
    17 t_2_3                 19.6155             0               
    18 s_1_4        *              1             0             1 
    19 t_1_4                 37.4956             0               
    20 s_2_4        *              0             0             1 
    21 t_2_4                 1043.16             0               
    22 s_1_5        *              0             0             1 
    23 t_1_5                 44.2957             0               
    24 s_2_5        *              1             0             1 
    25 t_2_5                 44.2957             0               
    26 s_1_6        *              1             0             1 
    27 t_1_6                 59.8211             0               
    28 s_2_6        *              0             0             1 
    29 t_2_6                 59.8211             0               
    30 t_1_7                 1024.61             0               
    31 t_2_7                       0             0               
    32 t_1_8                       0             0               
    33 t_2_8                       0             0               
    34 r_1_1_2      *              0             0             1 
    35 u_1_1_2      *              0             0             1 
    36 r_2_1_2      *              1             0             1 
    37 u_2_1_2      *              0             0             1 
    38 r_1_1_3      *              0             0             1 
    39 u_1_1_3      *              1             0             1 
    40 r_2_1_3      *              1             0             1 
    41 u_2_1_3      *              0             0             1 
    42 r_1_1_4      *              0             0             1 
    43 u_1_1_4      *              1             0             1 
    44 r_2_1_4      *              1             0             1 
    45 u_2_1_4      *              0             0             1 
    46 r_1_1_5      *              1             0             1 
    47 u_1_1_5      *              0             0             1 
    48 r_2_1_5      *              1             0             1 
    49 u_2_1_5      *              0             0             1 
    50 r_1_1_8      *              0             0             1 
    51 u_1_1_8      *              1             0             1 
    52 r_2_1_8      *              1             0             1 
    53 u_2_1_8      *              0             0             1 
    54 r_1_2_3      *              0             0             1 
    55 u_1_2_3      *              1             0             1 
    56 r_2_2_3      *              1             0             1 
    57 u_2_2_3      *              0             0             1 
    58 r_1_2_4      *              0             0             1 
    59 u_1_2_4      *              1             0             1 
    60 r_2_2_4      *              1             0             1 
    61 u_2_2_4      *              0             0             1 
    62 r_1_2_5      *              1             0             1 
    63 u_1_2_5      *              0             0             1 
    64 r_2_2_5      *              1             0             1 
    65 u_2_2_5      *              0             0             1 
    66 r_1_2_7      *              1             0             1 
    67 u_1_2_7      *              0             0             1 
    68 r_2_2_7      *              1             0             1 
    69 u_2_2_7      *              0             0             1 
    70 r_1_3_5      *              1             0             1 
    71 u_1_3_5      *              0             0             1 
    72 r_2_3_5      *              1             0             1 
    73 u_2_3_5      *              0             0             1 
    74 r_1_3_7      *              1             0             1 
    75 u_1_3_7      *              0             0             1 
    76 r_2_3_7      *              1             0             1 
    77 u_2_3_7      *              0             0             1 
    78 r_1_4_5      *              1             0             1 
    79 u_1_4_5      *              0             0             1 
    80 r_2_4_5      *              1             0             1 
    81 u_2_4_5      *              0             0             1 
    82 r_1_4_7      *              1             0             1 
    83 u_1_4_7      *              0             0             1 
    84 r_2_4_7      *              1             0             1 
    85 u_2_4_7      *              0             0             1 
    86 r_1_7_8      *              1             0             1 
    87 u_1_7_8      *              0             0             1 
    88 r_2_7_8      *              1             0             1 
    89 u_2_7_8      *              0             0             1 

Integer feasibility conditions:

KKT.PE: max.abs.err = 4.55e-13 on row 164
        max.rel.err = 1.08e-16 on row 6
        High quality

KKT.PB: max.abs.err = 1.14e-13 on row 22
        max.rel.err = 2.12e-16 on row 81
        High quality

End of output
